
include               "system.in.init" 
read_data             "system.data"
include               "systemm.in.settings"
group Solvente type 1
group Pared type 2 
group Dimero type 3 4
#calculemos cola y cabeza por separado group Dimero type 3 4
velocity       	Solvente create 1.00  12345 mom yes rot yes dist gaussian
velocity       	Dimero create 1.00  12345 mom yes rot yes dist gaussian

velocity        Pared zero linear

#comm_modify           	mode single cutoff 3.5 vel yes
comm_modify            	mode single cutoff 13.5 vel yes
neighbor       		2.0 bin
neigh_modify   		delay 2 one 20000 page 200000
timestep              	 0.03

fix 		        1 all nve

fix                 2 Pared setforce 0.0 0.0 0.0
fix 		        3 Dimero rigid molecule

#MSD
compute                	msd1 Solvente msd 
compute                 msd3 Dimero msd
variable               	msd1 equal c_msd1[4]
variable                msd3 equal c_msd3[4]

#g(r)
#agua
#compute			grWater all rdf 100 1 1 1 3 1 4 3 3 3 4 4 4 cutoff 10.0
#variable		grWater equal c_grWater[*]

#fix			grWaterfix all ave/time 5000 20 100000 c_grWater[*] file grWater.data mode vector

#set                    group SPCE image 0 0 0
fix                    msd1fix Solvente ave/time 1 1 1  c_msd1[4] file msd1w.data 
fix                    msd3fix Dimero ave/time 1 1 1 c_msd3[4] file msd3w.data

thermo_style	        custom step# etotal ke pe ebond enthalpy temp press c_msdA[4]  
thermo                 500
thermo_modify  	flush yes
dump 1 all atom 10000 dump.lammpstrjw
dump 2 Dimero custom 10000 dump.dimero id  xu yu zu vx vy vz 
#dump 4 Water custom 10 dump.mywatermenor id  xu yu zu vx vy vz
run 10000000
#run 10000
write_data  system_after_nvt.data
