pair_coeff  1 2  50  4.5   1.0
pair_coeff  1 3   25  4.5   1.0
pair_coeff  1 4   25  4.5   1.0
pair_coeff  3 4   25 4.5 1.0
pair_coeff    1 1    25.0   4.5  1.0
pair_coeff    3 3    50.0   4.5  1.0
pair_coeff    4 4    50.0   4.5  1.0
pair_coeff    2 2    50.0   4.5  1.0
pair_coeff    2 3    50.0   4.5  1.0
pair_coeff    2 4    25.0   4.5  1.0


