variable rc equal 1.122462048
pair_coeff  1 1  1.0 1.0 rc
#pair_coeff  1 3   25  4.5   1.0